c Geometric graph with bandwidth and node weights
c Parameters: Vertices 50, Max node weight 10, Max edge weight 10
c      Maximum squared distance for edge (in 10,000 by 10,000 square) 5000000
c not original file ! Modified for weighted vertex coloring problem
p edge 50 127
e 1 2
e 1 3
e 2 3
e 2 23
e 2 30
e 2 45
e 3 23
e 3 25
e 3 30
e 3 45
e 4 6
e 4 7
e 4 12
e 4 18
e 4 27
e 5 15
e 5 21
e 6 7
e 6 12
e 6 18
e 6 27
e 7 12
e 7 18
e 7 27
e 7 43
e 8 13
e 8 21
e 8 29
e 8 46
e 9 10
e 9 35
e 9 38
e 9 50
e 10 36
e 10 38
e 10 47
e 10 50
e 11 22
e 11 24
e 11 49
e 12 18
e 12 27
e 13 17
e 13 29
e 13 31
e 13 42
e 13 46
e 14 19
e 14 20
e 14 24
e 14 25
e 14 26
e 14 44
e 15 21
e 15 33
e 15 35
e 16 28
e 16 31
e 16 33
e 16 34
e 16 37
e 16 39
e 16 42
e 16 48
e 17 29
e 17 31
e 17 32
e 17 41
e 17 46
e 18 27
e 19 20
e 19 47
e 19 50
e 20 25
e 20 30
e 20 44
e 22 28
e 22 43
e 22 48
e 22 49
e 23 24
e 23 25
e 23 30
e 23 45
e 24 25
e 24 44
e 24 45
e 24 49
e 25 30
e 25 44
e 25 45
e 26 35
e 26 44
e 28 34
e 28 37
e 28 39
e 28 43
e 28 48
e 29 31
e 29 32
e 29 46
e 30 45
e 31 37
e 31 42
e 32 37
e 32 39
e 32 41
e 33 42
e 33 48
e 34 37
e 34 39
e 34 42
e 34 43
e 34 48
e 35 38
e 36 38
e 36 47
e 36 50
e 37 39
e 37 41
e 37 42
e 37 48
e 38 47
e 38 50
e 39 41
e 42 48
e 47 50
